
SetGridSize(1, 1, 1)
SetCellSize(1e-9, 1e-9, 1e-9)
m = Uniform(1, 0, 0)
alpha = 0.02
B_ext = Vector(0, 0, 0.1)
//EnableDemag = false
TableAutosave(10e-12)
Run(10e-9)
